! def2-SVP TightSCF NoFrozenCore esd(abs)

%autoci
 citype IPROCI
 nroots[0]=1
 XPSORB= 14
end

%esd gshessian "13.GS.hess"
 #eshessian "ES.hess"
 COORDSYS CART
 unit ev
 printlevel 3
 SpecRange 10000,250000
 #doht true
 hessflag ahas
 tdip 1,0,0
end

%numgrad DX 0.05
end

*xyz 0 1
  F   -0.00813304008840  0 0
  C   1.28328723878321    0 0
  P   2.84806580130518     0 0
*
